NAME : XML50_2173_07
COMMENT : Generated as the XML100 dataset from the CVRPLIB
TYPE : CVRP
DIMENSION : 51
EDGE_WEIGHT_TYPE : EUC_2D
CAPACITY : 137
NODE_COORD_SECTION
1    500  500 
2    332  686 
3    719  659 
4    564  508 
5    370  557 
6    939  897 
7    9    417 
8    463  916 
9    298  983 
10   466  680 
11   55   386 
12   569  424 
13   564  715 
14   112  777 
15   767  461 
16   604  879 
17   392  593 
18   398  429 
19   915  518 
20   816  493 
21   991  171 
22   142  0   
23   42   102 
24   229  401 
25   106  980 
26   994  811 
27   53   80  
28   530  8   
29   110  617 
30   755  62  
31   727  464 
32   994  936 
33   127  371 
34   293  876 
35   866  42  
36   813  91  
37   948  331 
38   682  669 
39   393  182 
40   665  253 
41   784  198 
42   133  66  
43   426  93  
44   544  997 
45   342  502 
46   396  122 
47   967  26  
48   670  648 
49   555  426 
50   805  348 
51   554  763 
DEMAND_SECTION
1    0   
2    1   
3    86  
4    4   
5    5   
6    6   
7    6   
8    8   
9    4   
10   4   
11   1   
12   51  
13   88  
14   7   
15   69  
16   7   
17   9   
18   7   
19   9   
20   8   
21   6   
22   9   
23   6   
24   73  
25   3   
26   8   
27   8   
28   96  
29   5   
30   7   
31   4   
32   1   
33   87  
34   3   
35   3   
36   2   
37   9   
38   3   
39   10  
40   7   
41   3   
42   9   
43   5   
44   4   
45   4   
46   6   
47   52  
48   5   
49   1   
50   8   
51   6   
DEPOT_SECTION
1
-1
EOF
